c random cnf
p cnf 50 50
-14 -37 0
22 49 0
-5 -12 0
20 -50 0
-17 -43 0
17 -29 0
-30 46 0
6 -48 0
-2 -37 0
13 -14 0
18 -36 0
-23 -49 0
10 48 0
3 16 0
11 -24 0
46 -47 0
15 -32 0
-4 21 0
-4 6 0
6 36 0
12 13 0
33 -36 0
34 44 0
7 -31 0
14 -26 0
12 -21 0
-18 -47 0
-10 49 0
6 -50 0
-34 -47 0
27 28 0
-4 -47 0
29 -46 0
28 -35 0
25 31 0
5 26 0
19 -24 0
39 50 0
-11 -22 0
26 30 0
-6 -49 0
34 41 0
-18 25 0
-9 34 0
9 31 0
13 24 0
3 13 0
41 -44 0
-23 32 0
-11 46 0
